100 100 100
50
66 79 64
51 100 65
100 94 70
39 49 17
89 79 24
86 94 92
53 96 56
89 57 94
63 53 62
12 98 81
41 67 78
88 84 59
80 67 64
65 51 97
94 88 14
78 85 77
83 72 5
95 78 86
52 77 59
71 82 69
83 95 15
76 55 67
62 68 57
91 58 72
36 87 72
100 75 73
49 22 23
84 59 67
64 65 91
94 59 67
76 74 98
9 100 81
98 73 25
63 84 94
70 33 93
43 84 73
66 90 61
51 93 73
98 73 60
84 79 85
97 86 44
73 15 68
23 39 34
51 61 71
99 88 82
74 54 53
81 64 86
71 82 63
64 98 70
58 93 74
